Set parameter TokenServer to value "hpc-licenses.hpcc.usc.edu"
Set parameter TimeLimit to value 3600
Gurobi Optimizer version 9.5.1 build v9.5.1rc2 (linux64)
Thread count: 20 physical cores, 20 logical processors, using up to 20 threads
Optimize a model with 6007 rows, 4529 columns and 24534 nonzeros
Model fingerprint: 0xd0407889
Variable types: 4506 continuous, 23 integer (23 binary)
Coefficient statistics:
  Matrix range     [1e+00, 1e+00]
  Objective range  [2e-04, 1e+00]
  Bounds range     [1e+00, 1e+00]
  RHS range        [1e+00, 2e+02]
Presolve removed 1520 rows and 1515 columns
Presolve time: 0.05s
Presolved: 4487 rows, 3014 columns, 21975 nonzeros
Variable types: 2994 continuous, 20 integer (20 binary)
Found heuristic solution: objective 225.4288473

Root relaxation: objective 2.361419e+02, 2685 iterations, 0.11 seconds (0.17 work units)

    Nodes    |    Current Node    |     Objective Bounds      |     Work
 Expl Unexpl |  Obj  Depth IntInf | Incumbent    BestBd   Gap | It/Node Time

     0     0  236.14189    0    2  225.42885  236.14189  4.75%     -    0s
H    0     0                     227.2006627  236.03274  3.89%     -    0s
     0     0  236.03274    0    2  227.20066  236.03274  3.89%     -    0s
     0     0  235.60967    0    2  227.20066  235.60967  3.70%     -    0s
     0     0  235.60323    0    4  227.20066  235.60323  3.70%     -    0s
H    0     0                     235.4541947  235.60323  0.06%     -    0s
     0     0  235.45419    0    4  235.45419  235.45419  0.00%     -    0s

Cutting planes:
  Gomory: 2
  MIR: 243
  RLT: 3

Explored 1 nodes (3332 simplex iterations) in 0.55 seconds (0.57 work units)
Thread count was 20 (of 20 available processors)

Solution count 3: 235.454 227.201 225.429 

Optimal solution found (tolerance 1.00e-04)
Best objective 2.354541946500e+02, best bound 2.354541946500e+02, gap 0.0000%



#########node  1
V1.6
#########node  2
0.019607843137254943,0.9803921568627451
#########node  3
1.0,0.0


Total Solving Time 0.9010915756225586
obj value 235.4541946500118
Policy Regret train (Sum) 1.948859407221686
Best Treatment Found train (%) 79.80000000000001
treatment classification acc train (%) 82.8
Policy Regret test (Sum) 33.257454375572316
Best Treatment Found test (%) 81.92
treatment classification acc test (%) 82.78999999999999
